Al12 P12 O48
1.0
7.048603 -12.208539 0.000000
7.048603 12.208539 0.000000
0.000000 0.000000 8.715988
Al P O
12 12 48
direct
0.544049 0.878470 0.936929 Al
0.121530 0.665579 0.936929 Al
0.334421 0.455951 0.936929 Al
0.665579 0.544049 0.936929 Al
0.455951 0.121530 0.936929 Al
0.878470 0.334421 0.936929 Al
0.544049 0.665579 0.436929 Al
0.878470 0.544049 0.436929 Al
0.665579 0.121530 0.436929 Al
0.334421 0.878470 0.436929 Al
0.121530 0.455951 0.436929 Al
0.455951 0.334421 0.436929 Al
0.546185 0.877246 0.562133 P
0.122754 0.668939 0.562133 P
0.331061 0.453815 0.562133 P
0.668939 0.546185 0.562133 P
0.453815 0.122754 0.562133 P
0.877246 0.331061 0.562133 P
0.546185 0.668939 0.062133 P
0.877246 0.546185 0.062133 P
0.668939 0.122754 0.062133 P
0.331061 0.877246 0.062133 P
0.122754 0.453815 0.062133 P
0.453815 0.331061 0.062133 P
0.431325 0.843771 0.500093 O
0.156229 0.587554 0.500093 O
0.412446 0.568675 0.500093 O
0.587554 0.431325 0.500093 O
0.568675 0.156229 0.500093 O
0.843771 0.412446 0.500093 O
0.431325 0.587554 0.000093 O
0.843771 0.431325 0.000093 O
0.587554 0.156229 0.000093 O
0.412446 0.843771 0.000093 O
0.156229 0.568675 0.000093 O
0.568675 0.412446 0.000093 O
0.631396 0.991169 0.503114 O
0.008831 0.640227 0.503114 O
0.359773 0.368604 0.503114 O
0.640227 0.631396 0.503114 O
0.368604 0.008831 0.503114 O
0.544004 0.878440 0.737563 O
0.991169 0.359773 0.503114 O
0.991169 0.631396 0.003114 O
0.640227 0.008831 0.003114 O
0.359773 0.991169 0.003114 O
0.008831 0.368604 0.003114 O
0.368604 0.359773 0.003114 O
0.420440 0.215202 0.007470 O
0.205238 0.420440 0.007470 O
0.215202 0.794762 0.007470 O
0.784798 0.205238 0.007470 O
0.794762 0.579560 0.007470 O
0.579560 0.784798 0.007470 O
0.794762 0.215202 0.507470 O
0.420440 0.205238 0.507470 O
0.784798 0.579560 0.507470 O
0.215202 0.420440 0.507470 O
0.205238 0.784798 0.507470 O
0.579560 0.794762 0.507470 O
0.455996 0.334436 0.237563 O
0.121560 0.455996 0.237563 O
0.334436 0.878440 0.237563 O
0.665564 0.121560 0.237563 O
0.878440 0.544004 0.237563 O
0.544004 0.665564 0.237563 O
0.878440 0.334436 0.737563 O
0.455996 0.121560 0.737563 O
0.665564 0.544004 0.737563 O
0.334436 0.455996 0.737563 O
0.121560 0.665564 0.737563 O
0.631396 0.640227 0.003114 O
