H2O                                     
   1.00000000000000     
    10.0000000000000000    0.0000000000000000    0.0000000000000000
     0.0000000000000000   10.0000000000000000    0.0000000000000000
     0.0000000000000000    0.0000000000000000   10.0000000000000000
   O 
     2
Direct
  0.5 0.5  0.5
  0.5  0.62  0.5

